NAME : rc_203.2.txt.8537075.tour
COMMENT : Length = 8537075
COMMENT : Found by LKH [Keld Helsgaun] Tue Nov  7 19:55:43 2017
TYPE : TOUR
DIMENSION : 33
TOUR_SECTION
1
29
18
26
27
12
11
14
13
22
32
28
4
9
31
17
30
8
7
15
5
6
16
20
23
24
19
21
2
3
10
25
33
-1
EOF
